data/solutions/planning/wellformed/intermediate/sequential/wellformed_intermediate_instance19_cplex.sol
Elapsed time: 48.25
Nodes explored: -
Nodes left: -
Relative gap: -
Upper bound: 19781751.0
Lower bound: -
C[0]=19337.0
C[1]=19337.0
C[2]=19337.0
C[3]=19337.0
C[4]=19337.0
C[5]=19337.0
C[6]=19337.0
C[7]=19337.0
C[8]=19337.0
C[9]=19337.0
y[0]=8
y[1]=8
y[2]=0
y[3]=5
y[4]=4
y[5]=8
y[6]=6
y[7]=9
y[8]=8
y[9]=8
y[10]=6
y[11]=0
y[12]=0
y[13]=3
y[14]=4
y[15]=1
y[16]=9
y[17]=9
y[18]=3
y[19]=6
y[20]=1
y[21]=0
y[22]=0
y[23]=0
y[24]=2
y[25]=2
y[26]=6
y[27]=1
y[28]=3
y[29]=8
y[30]=1
y[31]=0
y[32]=3
y[33]=6
y[34]=5
y[35]=4
y[36]=3
y[37]=5
y[38]=1
y[39]=1
y[40]=9
y[41]=0
y[42]=7
y[43]=0
y[44]=0
y[45]=2
y[46]=0
y[47]=0
y[48]=7
y[49]=4
y[50]=0
y[51]=9
y[52]=8
y[53]=5
y[54]=6
y[55]=2
y[56]=9
y[57]=4
y[58]=0
y[59]=5
y[60]=9
y[61]=5
y[62]=6
y[63]=0
y[64]=0
y[65]=2
y[66]=9
y[67]=7
y[68]=1
y[69]=1
y[70]=4
y[71]=0
y[72]=5
y[73]=4
y[74]=4
y[75]=2
y[76]=9
y[77]=7
y[78]=1
y[79]=0
y[80]=6
y[81]=6
y[82]=4
y[83]=1
y[84]=2
y[85]=6
y[86]=8
y[87]=7
y[88]=7
y[89]=4
y[90]=5
y[91]=5
y[92]=7
y[93]=9
y[94]=6
y[95]=4
y[96]=8
y[97]=6
y[98]=6
y[99]=0
y[100]=7
y[101]=5
y[102]=8
y[103]=6
y[104]=0
y[105]=0
y[106]=6
y[107]=7
y[108]=3
y[109]=3
y[110]=2
y[111]=0
y[112]=6
y[113]=1
y[114]=4
y[115]=1
y[116]=7
y[117]=2
y[118]=2
y[119]=8
y[120]=1
y[121]=5
y[122]=5
y[123]=9
y[124]=0
y[125]=0
y[126]=3
y[127]=3
y[128]=6
y[129]=8
y[130]=0
y[131]=1
y[132]=0
y[133]=5
y[134]=0
y[135]=3
y[136]=0
y[137]=8
y[138]=0
y[139]=7
y[140]=2
y[141]=6
y[142]=4
y[143]=8
y[144]=3
y[145]=0
y[146]=8
y[147]=0
y[148]=0
y[149]=4
y[150]=9
y[151]=0
y[152]=8
y[153]=0
y[154]=5
y[155]=4
y[156]=2
y[157]=2
y[158]=0
y[159]=0
y[160]=0
y[161]=9
y[162]=7
y[163]=8
y[164]=9
y[165]=9
y[166]=5
y[167]=7
y[168]=5
y[169]=2
y[170]=3
y[171]=1
y[172]=7
y[173]=4
y[174]=9
y[175]=7
y[176]=0
y[177]=5
y[178]=6
y[179]=8
y[180]=0
y[181]=1
y[182]=3
y[183]=3
y[184]=3
y[185]=8
y[186]=7
y[187]=4
y[188]=0
y[189]=4
y[190]=0
y[191]=5
y[192]=8
y[193]=2
y[194]=4
y[195]=4
y[196]=9
y[197]=3
y[198]=4
y[199]=7
y[200]=5
y[201]=0
y[202]=4
y[203]=9
y[204]=4
y[205]=9
y[206]=0
y[207]=3
y[208]=3
y[209]=2
y[210]=1
y[211]=1
y[212]=1
y[213]=5
y[214]=1
y[215]=4
y[216]=0
y[217]=9
y[218]=8
y[219]=1
y[220]=3
y[221]=7
y[222]=0
y[223]=9
y[224]=1
y[225]=8
y[226]=8
y[227]=8
y[228]=4
y[229]=5
y[230]=3
y[231]=3
y[232]=6
y[233]=3
y[234]=0
y[235]=3
y[236]=1
y[237]=6
y[238]=8
y[239]=2
y[240]=3
y[241]=4
y[242]=5
y[243]=5
y[244]=8
y[245]=3
y[246]=2
y[247]=0
y[248]=3
y[249]=8
y[250]=0
y[251]=0
y[252]=0
y[253]=0
y[254]=0
y[255]=4
y[256]=6
y[257]=1
y[258]=9
y[259]=0
y[260]=5
y[261]=0
y[262]=4
y[263]=2
y[264]=8
y[265]=7
y[266]=0
y[267]=9
y[268]=9
y[269]=3
y[270]=2
y[271]=4
y[272]=9
y[273]=7
y[274]=2
y[275]=6
y[276]=2
y[277]=3
y[278]=1
y[279]=9
y[280]=4
y[281]=7
y[282]=6
y[283]=2
y[284]=9
y[285]=1
y[286]=0
y[287]=8
y[288]=9
y[289]=9
y[290]=4
y[291]=0
y[292]=9
y[293]=7
y[294]=5
y[295]=0
y[296]=6
y[297]=0
y[298]=3
y[299]=2
y[300]=8
y[301]=9
y[302]=6
y[303]=5
y[304]=4
y[305]=1
y[306]=6
y[307]=8
y[308]=7
y[309]=0
y[310]=7
y[311]=6
y[312]=1
y[313]=2
y[314]=4
y[315]=3
y[316]=0
y[317]=0
y[318]=6
y[319]=0
y[320]=4
y[321]=7
y[322]=6
y[323]=1
y[324]=5
y[325]=0
y[326]=4
y[327]=7
y[328]=9
y[329]=0
y[330]=2
y[331]=8
y[332]=6
y[333]=8
y[334]=2
y[335]=5
y[336]=0
y[337]=6
y[338]=7
y[339]=3
y[340]=5
y[341]=4
y[342]=0
y[343]=6
y[344]=5
y[345]=0
y[346]=1
y[347]=2
y[348]=1
y[349]=0
y[350]=5
y[351]=9
y[352]=9
y[353]=6
y[354]=7
y[355]=3
y[356]=7
y[357]=0
y[358]=6
y[359]=9
y[360]=5
y[361]=4
y[362]=7
y[363]=0
y[364]=7
y[365]=0
y[366]=0
y[367]=3
y[368]=8
y[369]=6
y[370]=6
y[371]=4
y[372]=6
y[373]=5
y[374]=5
y[375]=2
y[376]=8
y[377]=9
y[378]=8
y[379]=7
y[380]=3
y[381]=6
y[382]=2
y[383]=6
y[384]=8
y[385]=7
y[386]=0
y[387]=5
y[388]=8
y[389]=1
y[390]=7
y[391]=1
y[392]=2
y[393]=3
y[394]=0
y[395]=9
y[396]=3
y[397]=0
y[398]=0
y[399]=5
